92 33 30 28 26 32 93 
82 11 12 78 10 17 
22 49 20 66 
42 44 38 41 35 37 
59 75 77 25 
27 29 31 34 50 80 
61 81 90 
14 47 15 16 9 87 97 13 
2 46 3 1 4 100 70 
45 5 8 7 6 55 
83 23 21 19 18 48 24 
65 52 99 57 86 74 58 
88 73 79 60 
72 39 36 40 43 68 
69 98 53 
64 51 76 89 91 
63 85 84 56 
95 62 67 71 94 96 54 
